# Objective value = 3.5015612391678075e-01
err 3.5015612391678075e-01
s1 1.5567000000000007e+02
s2 1.5467000000000007e+02
s3 1.5367000000000007e+02
s4 1.5267000000000007e+02
s5 1.5167000000000007e+02
s6 1.5067000000000007e+02
info1 3
info2 2
info3 1
f1 6
f2 5
f3 4
f4 3
f5 2
f6 1
2198 2198
SYS 0
comm 0
GPS 0
2915 2915
2279 2279
1796 1796
1675 1675
